
Gurobi 10.0.0 (mac64[x86], gurobi_cl) logging started Sat Feb  3 15:15:52 2024

Set parameter Username
Set parameter LogFile to value "gurobi.log"

Gurobi 10.0.0 (mac64[x86], gurobi_cl) logging started Sat Feb  3 15:15:52 2024

Set parameter Username
Set parameter LogFile to value "gurobi.log"

Gurobi 10.0.0 (mac64[x86], gurobi_cl) logging started Sat Feb  3 15:16:20 2024

Set parameter Username
Set parameter LogFile to value "gurobi.log"

Gurobi 10.0.0 (mac64[x86], gurobi_cl) logging started Sat Feb  3 15:20:42 2024

Set parameter Username
Set parameter LogFile to value "gurobi.log"
